W=9;
H=7;

MAX_TIME=46;
MAX_TRACKS=26;

TARGET=(4,9);

TRAINS=[(4,2,RIGHT),(4,5,RIGHT)];

INIT_POS=[
(2,3,STRAIGHT_RL),
(2,7,STRAIGHT_TD),
(4,2,STRAIGHT_RL),
(4,5,STRAIGHT_RL),
(4,9,STRAIGHT_RL),
(6,3,STRAIGHT_TD),
(6,7,STRAIGHT_RL),
(1,3,EMPTY),
(2,8,EMPTY),
(6,2,EMPTY),
(7,7,EMPTY),
];
TUNNEL_PAIRS=[];

GATES=[];
ACTIVATIONS=[];

DSWITCHES=[];

STATIONS=[
  (2,3,1),
  (2,7,1),
  (6,3,1),
  (6,7,1),
];
